% number of games is 120
num = 120;
cap = 5;
refill = 2;
fun = [15, 9, 2, -11, -11, 20, 7, 9, -15, 14, -15, 9, -18, -6, 7, 18, 17, -1, 14, -14, 5, -20, -4, -9, -12, -6, -1, 5, -19, 16, 18, -18, 10, 16, -18, 8, 13, 7, -14, 13, 3, 12, -17, -2, 8, 2, -12, -10, 12, -9, -3, -19, -8, 7, -10, -15, 16, -7, 10, 6, 5, 20, -15, 19, 11, 4, -1, -17, -9, 11, -18, -16, 4, -3, -1, 13, 20, 10, 10, -9, 9, 0, -16, -2, -4, -20, -10, -19, -19, -4, 8, 3, 12, 1, -8, -9, -4, 17, -20, -6, -6, 2, -5, 3, 6, -19, -17, 5, -16, 8, 4, -18, -19, 14, -1, -19, -13, 13, -16, 6];
